(set-info :smt-lib-version 2.6)
(set-logic QF_S)
(set-info :source |
Generated by: Oliver Markgraf, Hongjian Jiang, Daniel Stan, Anthony W. Lin, Philipp Ruemmer
Generated on: 2025-04-08
Application: Using String Solvers to solve RMC problems encoded as CHC over Strings
Target solver: cvc5, OSTRICH, Z3, Z3alpha, Z3-noodler
Time limit: 60.0
Benchmarks are extracted by running HornStr https://arg-git.informatik.uni-kl.de/pub/string-chc-lib on all benchmarks
provided in the repository and gathering the string queries sent to the string solvers.
|)
(set-info :license "https://creativecommons.org/licenses/by/4.0/")
(set-info :category "industrial")
(declare-fun X () String)
(assert (let ((a!1 (re.union (re.union (re.union (str.to_re "0") (str.to_re "B"))
                               (str.to_re "1"))
                     (str.to_re "E"))))
(let ((a!2 (re.* (re.union (re.union a!1 (str.to_re "W")) (str.to_re "O")))))
  (str.in_re X a!2))))
(assert (let ((a!1 (re.++ (re.* (re.++ (str.to_re "W") (str.to_re "W")))
                  (re.++ (str.to_re "W") (str.to_re "W"))))
      (a!5 (re.union (str.to_re "")
                     (re.++ (str.to_re "0") (re.* (str.to_re "0")))))
      (a!12 (re.union (str.to_re "")
                      (re.++ (str.to_re "B") (re.* (str.to_re "B")))))
      (a!14 (re.union (str.to_re "")
                      (re.++ (str.to_re "1") (re.* (str.to_re "1"))))))
(let ((a!2 (re.union (re.++ (str.to_re "W") (str.to_re "W"))
                     (re.++ (re.++ (str.to_re "W") (str.to_re "W")) a!1)))
      (a!7 (re.++ (str.to_re "W") (re.++ (re.* (str.to_re "0")) a!5))))
(let ((a!3 (re.++ (re.* (re.++ (str.to_re "W") (str.to_re "W"))) a!2))
      (a!8 (re.++ (re.* (re.++ (str.to_re "W") (str.to_re "W"))) a!7)))
(let ((a!4 (re.union (re.union (re.++ (str.to_re "O") (str.to_re "W"))
                               (str.to_re "E"))
                     (re.++ (re.++ (str.to_re "O") (str.to_re "W")) a!3)))
      (a!9 (re.union a!7 (re.++ (re.++ (str.to_re "W") (str.to_re "W")) a!8))))
(let ((a!6 (re.++ a!4 (re.++ (re.* (str.to_re "0")) a!5)))
      (a!10 (re.++ (re.* (re.++ (str.to_re "W") (str.to_re "W"))) a!9)))
(let ((a!11 (re.union a!6 (re.++ (re.++ (str.to_re "E") (str.to_re "W")) a!10))))
(let ((a!13 (re.++ a!11 (re.++ (re.* (str.to_re "B")) a!12))))
(let ((a!15 (re.++ a!13 (re.++ (re.* (str.to_re "1")) a!14))))
  (str.in_re X (re.union a!13 a!15)))))))))))
(push 1)
(assert (str.in_re X (str.to_re "")))
(set-info :status unknown)
(check-sat)
(pop 1)
(push 1)
(assert (let ((a!1 (re.union (re.union (re.union (str.to_re "0") (str.to_re "B"))
                               (str.to_re "1"))
                     (str.to_re "E"))))
  (str.in_re X (re.union (re.union a!1 (str.to_re "W")) (str.to_re "O")))))
(set-info :status unknown)
(check-sat)
(assert (distinct X "E"))
(set-info :status unknown)
(check-sat)
(pop 1)
(push 1)
(assert (let ((a!1 (re.union (re.union (re.union (str.to_re "0") (str.to_re "B"))
                               (str.to_re "1"))
                     (str.to_re "E"))))
(let ((a!2 (re.++ (re.union (re.union a!1 (str.to_re "W")) (str.to_re "O"))
                  (re.union (re.union a!1 (str.to_re "W")) (str.to_re "O")))))
  (str.in_re X a!2))))
(set-info :status unknown)
(check-sat)
(assert (distinct X "OW"))
(set-info :status unknown)
(check-sat)
(assert (distinct X "E0"))
(set-info :status unknown)
(check-sat)
(assert (distinct X "E1"))
(set-info :status unknown)
(check-sat)
(assert (distinct X "EB"))
(set-info :status unknown)
(check-sat)
(pop 1)
(push 1)
(assert (let ((a!1 (re.union (re.union (re.union (str.to_re "0") (str.to_re "B"))
                               (str.to_re "1"))
                     (str.to_re "E"))))
(let ((a!2 (re.++ (re.union (re.union a!1 (str.to_re "W")) (str.to_re "O"))
                  (re.union (re.union a!1 (str.to_re "W")) (str.to_re "O")))))
(let ((a!3 (re.++ a!2 (re.union (re.union a!1 (str.to_re "W")) (str.to_re "O")))))
  (str.in_re X a!3)))))
(set-info :status unknown)
(check-sat)
(assert (distinct X "OW0"))
(set-info :status unknown)
(check-sat)
(assert (distinct X "OW1"))
(set-info :status unknown)
(check-sat)
(assert (distinct X "OWB"))
(set-info :status unknown)
(check-sat)
(assert (distinct X "E00"))
(set-info :status unknown)
(check-sat)
(assert (distinct X "E11"))
(set-info :status unknown)
(check-sat)
(assert (distinct X "EB1"))
(set-info :status unknown)
(check-sat)
(assert (distinct X "EBB"))
(set-info :status unknown)
(check-sat)
(assert (distinct X "E01"))
(set-info :status unknown)
(check-sat)
(assert (distinct X "E0B"))
(set-info :status unknown)
(check-sat)
(assert (distinct X "EWW"))
(set-info :status unknown)
(check-sat)
(pop 1)
(push 1)
(assert (let ((a!1 (re.union (re.union (re.union (str.to_re "0") (str.to_re "B"))
                               (str.to_re "1"))
                     (str.to_re "E"))))
(let ((a!2 (re.++ (re.union (re.union a!1 (str.to_re "W")) (str.to_re "O"))
                  (re.union (re.union a!1 (str.to_re "W")) (str.to_re "O")))))
(let ((a!3 (re.++ a!2 (re.union (re.union a!1 (str.to_re "W")) (str.to_re "O")))))
(let ((a!4 (re.++ a!3 (re.union (re.union a!1 (str.to_re "W")) (str.to_re "O")))))
  (str.in_re X a!4))))))
(set-info :status unknown)
(check-sat)
(assert (distinct X "OW00"))
(set-info :status unknown)
(check-sat)
(assert (distinct X "OW11"))
(set-info :status unknown)
(check-sat)
(assert (distinct X "OWB1"))
(set-info :status unknown)
(check-sat)
(assert (distinct X "OWBB"))
(set-info :status unknown)
(check-sat)
(assert (distinct X "OW01"))
(set-info :status unknown)
(check-sat)
(assert (distinct X "OW0B"))
(set-info :status unknown)
(check-sat)
(assert (distinct X "OWWW"))
(set-info :status unknown)
(check-sat)
(assert (distinct X "EWW0"))
(set-info :status unknown)
(check-sat)
(assert (distinct X "EWW1"))
(set-info :status unknown)
(check-sat)
(assert (distinct X "EWWB"))
(set-info :status unknown)
(check-sat)
(assert (distinct X "E000"))
(set-info :status unknown)
(check-sat)
(assert (distinct X "E111"))
(set-info :status unknown)
(check-sat)
(assert (distinct X "EB11"))
(set-info :status unknown)
(check-sat)
(assert (distinct X "EBB1"))
(set-info :status unknown)
(check-sat)
(assert (distinct X "EBBB"))
(set-info :status unknown)
(check-sat)
(assert (distinct X "E011"))
(set-info :status unknown)
(check-sat)
(assert (distinct X "E0B1"))
(set-info :status unknown)
(check-sat)
(assert (distinct X "E0BB"))
(set-info :status unknown)
(check-sat)
(assert (distinct X "E001"))
(set-info :status unknown)
(check-sat)
(assert (distinct X "E00B"))
(set-info :status unknown)
(check-sat)
(pop 1)
(exit)
